p cnf 779 2278
r 0.5 1 2 3 4 5 6 7 8 9 10 11 12 13 14 15 16 17 18 19 20 21 22 23 24 25 0
e 26 27 28 29 30 31 32 33 34 35 36 37 38 39 40 41 42 43 44 45 46 47 48 49 50 51 52 53 54 55 56 57 58 59 60 61 62 63 64 65 66 67 68 69 70 71 72 73 74 75 76 77 78 79 80 81 82 83 84 85 86 87 88 89 90 91 92 93 94 95 96 97 98 99 100 101 102 103 104 105 106 107 108 109 110 111 112 113 114 115 116 117 118 119 120 121 122 123 124 125 126 127 128 129 130 131 132 133 134 135 136 137 138 139 140 141 142 143 144 145 146 147 148 149 150 151 152 153 154 155 156 157 158 159 160 161 162 163 164 165 166 167 168 169 170 171 172 173 174 175 176 177 178 179 180 181 182 183 184 185 186 187 188 189 190 191 192 193 194 195 196 197 198 199 200 201 202 203 204 205 206 207 208 209 210 211 212 213 214 215 216 217 218 219 220 221 222 223 224 225 226 227 228 229 230 231 232 233 234 235 236 237 238 239 240 241 242 243 244 245 246 247 248 249 250 251 252 253 254 255 256 257 258 259 260 261 262 263 264 265 266 267 268 269 270 271 272 273 274 275 276 277 278 279 280 281 282 283 284 285 286 287 288 289 290 291 292 293 294 295 296 297 298 299 300 301 302 303 304 305 306 307 308 309 310 311 312 313 314 315 316 317 318 319 320 321 322 323 324 325 326 327 328 329 330 331 332 333 334 335 336 337 338 339 340 341 342 343 344 345 346 347 348 349 350 351 352 353 354 355 356 357 358 359 360 361 362 363 364 365 366 367 368 369 370 371 372 373 374 375 376 377 378 379 380 381 382 383 384 385 386 387 388 389 390 391 392 393 394 395 396 397 398 399 400 401 402 403 404 405 406 407 408 409 410 411 412 413 414 415 416 417 418 419 420 421 422 423 424 425 426 427 428 429 430 431 432 433 434 435 436 437 438 439 440 441 442 443 444 445 446 447 448 449 450 451 452 453 454 455 456 457 458 459 460 461 462 463 464 465 466 467 468 469 470 471 472 473 474 475 476 477 478 479 480 481 482 483 484 485 486 487 488 489 490 491 492 493 494 495 496 497 498 499 500 501 502 503 504 505 506 507 508 509 510 511 512 513 514 515 516 517 518 519 520 521 522 523 524 525 526 527 528 529 530 531 532 533 534 535 536 537 538 539 540 541 542 543 544 545 546 547 548 549 550 551 552 553 554 555 556 557 558 559 560 561 562 563 564 565 566 567 568 569 570 571 572 573 574 575 576 577 578 579 580 581 582 583 584 585 586 587 588 589 590 591 592 593 594 595 596 597 598 599 600 601 602 603 604 605 606 607 608 609 610 611 612 613 614 615 616 617 618 619 620 621 622 623 624 625 626 627 628 629 630 631 632 633 634 635 636 637 638 639 640 641 642 643 644 645 646 647 648 649 650 651 652 653 654 655 656 657 658 659 660 661 662 663 664 665 666 667 668 669 670 671 672 673 674 675 676 677 678 679 680 681 682 683 684 685 686 687 688 689 690 691 692 693 694 695 696 697 698 699 700 701 702 703 704 705 706 707 708 709 710 711 712 713 714 715 716 717 718 719 720 721 722 723 724 725 726 727 728 729 730 731 732 733 734 735 736 737 738 739 740 741 742 743 744 745 746 747 748 749 750 751 752 753 754 755 756 757 758 759 760 761 762 763 764 765 766 767 768 769 770 771 772 773 774 775 776 777 778 779 0
-779 -26 1 0
-778 -27 2 0
-777 -28 3 0
-776 -29 4 0
-775 -30 5 0
-774 -31 6 0
-773 -32 7 0
-772 -33 8 0
-771 -34 9 0
-770 -35 10 0
-769 -36 11 0
-768 -37 12 0
-767 -38 13 0
-766 -39 14 0
-765 -40 15 0
-764 -41 16 0
-763 -42 17 0
-762 -43 18 0
-761 -44 19 0
-760 -45 20 0
-759 -46 21 0
-758 -47 22 0
-757 -48 23 0
-756 -49 24 0
-755 -50 25 0
-754 1 0
-754 -26 0
-753 26 0
-753 -1 0
-752 2 0
-752 -27 0
-751 27 0
-751 -2 0
-750 3 0
-750 -28 0
-749 28 0
-749 -3 0
-748 4 0
-748 -29 0
-747 29 0
-747 -4 0
-746 5 0
-746 -30 0
-745 30 0
-745 -5 0
-744 6 0
-744 -31 0
-743 31 0
-743 -6 0
-742 7 0
-742 -32 0
-741 32 0
-741 -7 0
-740 8 0
-740 -33 0
-739 33 0
-739 -8 0
-738 9 0
-738 -34 0
-737 34 0
-737 -9 0
-736 10 0
-736 -35 0
-735 35 0
-735 -10 0
-734 11 0
-734 -36 0
-733 36 0
-733 -11 0
-732 12 0
-732 -37 0
-731 37 0
-731 -12 0
-730 13 0
-730 -38 0
-729 38 0
-729 -13 0
-728 14 0
-728 -39 0
-727 39 0
-727 -14 0
-726 15 0
-726 -40 0
-725 40 0
-725 -15 0
-724 16 0
-724 -41 0
-723 41 0
-723 -16 0
-722 17 0
-722 -42 0
-721 42 0
-721 -17 0
-720 18 0
-720 -43 0
-719 43 0
-719 -18 0
-718 19 0
-718 -44 0
-717 44 0
-717 -19 0
-716 20 0
-716 -45 0
-715 45 0
-715 -20 0
-714 21 0
-714 -46 0
-713 46 0
-713 -21 0
-712 22 0
-712 -47 0
-711 47 0
-711 -22 0
-710 23 0
-710 -48 0
-709 48 0
-709 -23 0
-708 24 0
-708 -49 0
-707 49 0
-707 -24 0
-706 25 0
-706 -50 0
-705 50 0
-705 -25 0
-704 754 753 752 751 750 749 748 747 746 745 744 743 742 741 740 739 738 737 736 735 734 733 732 731 730 729 728 727 726 725 724 723 722 721 720 719 718 717 716 715 714 713 712 711 710 709 708 707 706 705 0
-703 5 0
-703 2 0
-703 25 0
-703 15 0
-703 -16 0
-702 15 0
-702 10 0
-702 7 0
-702 -16 0
-701 10 0
-701 25 0
-701 8 0
-701 7 0
-701 -16 0
-700 10 0
-700 13 0
-700 11 0
-700 19 0
-700 -16 0
-699 22 0
-699 21 0
-699 1 0
-699 14 0
-699 -16 0
-698 1 0
-698 22 0
-698 9 0
-698 23 0
-698 -16 0
-697 9 0
-697 21 0
-697 19 0
-697 -16 0
-696 4 0
-696 7 0
-696 1 0
-696 12 0
-696 -16 0
-695 22 0
-695 23 0
-695 4 0
-695 -16 0
-694 4 0
-694 15 0
-694 3 0
-694 25 0
-694 -16 0
-693 10 0
-693 11 0
-693 15 0
-693 6 0
-693 -18 0
-692 12 0
-692 2 0
-692 21 0
-692 24 0
-692 -18 0
-691 8 0
-691 20 0
-691 16 0
-691 11 0
-691 -18 0
-690 3 0
-690 22 0
-690 25 0
-690 5 0
-690 -18 0
-689 7 0
-689 23 0
-689 21 0
-689 -18 0
-688 20 0
-688 21 0
-688 25 0
-688 2 0
-688 -18 0
-687 22 0
-687 11 0
-687 23 0
-687 -18 0
-686 13 0
-686 7 0
-686 11 0
-686 -18 0
-685 7 0
-685 20 0
-685 14 0
-685 22 0
-685 -18 0
-684 12 0
-684 16 0
-684 7 0
-684 -18 0
-683 7 0
-683 12 0
-683 23 0
-683 17 0
-683 -4 0
-682 19 0
-682 12 0
-682 17 0
-682 13 0
-682 -4 0
-681 3 0
-681 13 0
-681 2 0
-681 22 0
-681 -4 0
-680 2 0
-680 19 0
-680 10 0
-680 21 0
-680 -4 0
-679 5 0
-679 2 0
-679 12 0
-679 -4 0
-678 1 0
-678 22 0
-678 21 0
-678 -4 0
-677 25 0
-677 3 0
-677 15 0
-677 -4 0
-676 15 0
-676 8 0
-676 7 0
-676 2 0
-676 -4 0
-675 5 0
-675 13 0
-675 7 0
-675 -4 0
-674 10 0
-674 20 0
-674 17 0
-674 -4 0
-673 11 0
-673 15 0
-673 2 0
-673 -7 0
-672 10 0
-672 24 0
-672 16 0
-672 5 0
-672 -7 0
-671 20 0
-671 11 0
-671 9 0
-671 14 0
-671 -7 0
-670 24 0
-670 13 0
-670 23 0
-670 3 0
-670 -7 0
-669 9 0
-669 23 0
-669 3 0
-669 12 0
-669 -7 0
-668 22 0
-668 20 0
-668 2 0
-668 14 0
-668 -7 0
-667 25 0
-667 22 0
-667 2 0
-667 10 0
-667 -7 0
-666 2 0
-666 15 0
-666 20 0
-666 1 0
-666 -7 0
-665 20 0
-665 4 0
-665 9 0
-665 19 0
-665 -7 0
-664 10 0
-664 3 0
-664 24 0
-664 -7 0
-663 25 0
-663 23 0
-663 7 0
-663 3 0
-663 -12 0
-662 2 0
-662 22 0
-662 17 0
-662 -12 0
-661 19 0
-661 17 0
-661 16 0
-661 10 0
-661 -12 0
-660 2 0
-660 8 0
-660 6 0
-660 -12 0
-659 25 0
-659 23 0
-659 13 0
-659 10 0
-659 -12 0
-658 7 0
-658 1 0
-658 19 0
-658 23 0
-658 -12 0
-657 15 0
-657 14 0
-657 4 0
-657 9 0
-657 -12 0
-656 4 0
-656 17 0
-656 14 0
-656 1 0
-656 -12 0
-655 13 0
-655 16 0
-655 24 0
-655 14 0
-655 -12 0
-654 2 0
-654 9 0
-654 18 0
-654 16 0
-654 -12 0
-653 9 0
-653 23 0
-653 10 0
-653 17 0
-653 -2 0
-652 13 0
-652 21 0
-652 22 0
-652 10 0
-652 -2 0
-651 19 0
-651 23 0
-651 1 0
-651 15 0
-651 -2 0
-650 25 0
-650 7 0
-650 10 0
-650 3 0
-650 -2 0
-649 21 0
-649 23 0
-649 10 0
-649 12 0
-649 -2 0
-648 17 0
-648 7 0
-648 15 0
-648 -2 0
-647 9 0
-647 16 0
-647 1 0
-647 8 0
-647 -2 0
-646 4 0
-646 16 0
-646 13 0
-646 -2 0
-645 25 0
-645 20 0
-645 23 0
-645 -2 0
-644 3 0
-644 16 0
-644 24 0
-644 7 0
-644 -2 0
-643 15 0
-643 9 0
-643 2 0
-643 -11 0
-642 15 0
-642 8 0
-642 24 0
-642 -11 0
-641 17 0
-641 1 0
-641 15 0
-641 13 0
-641 -11 0
-640 2 0
-640 13 0
-640 1 0
-640 23 0
-640 -11 0
-639 21 0
-639 18 0
-639 1 0
-639 22 0
-639 -11 0
-638 15 0
-638 21 0
-638 2 0
-638 25 0
-638 -11 0
-637 24 0
-637 9 0
-637 1 0
-637 10 0
-637 -11 0
-636 12 0
-636 3 0
-636 24 0
-636 -11 0
-635 15 0
-635 20 0
-635 -11 0
-634 3 0
-634 8 0
-634 21 0
-634 -11 0
-633 18 0
-633 8 0
-633 21 0
-633 9 0
-633 -23 0
-632 17 0
-632 24 0
-632 13 0
-632 20 0
-632 -23 0
-631 7 0
-631 20 0
-631 6 0
-631 8 0
-631 -23 0
-630 10 0
-630 11 0
-630 4 0
-630 2 0
-630 -23 0
-629 5 0
-629 21 0
-629 20 0
-629 8 0
-629 -23 0
-628 5 0
-628 20 0
-628 3 0
-628 16 0
-628 -23 0
-627 17 0
-627 7 0
-627 8 0
-627 14 0
-627 -23 0
-626 6 0
-626 19 0
-626 5 0
-626 20 0
-626 -23 0
-625 18 0
-625 6 0
-625 10 0
-625 19 0
-625 -23 0
-624 22 0
-624 3 0
-624 13 0
-624 17 0
-624 -23 0
-623 9 0
-623 1 0
-623 14 0
-623 19 0
-623 -21 0
-622 3 0
-622 8 0
-622 19 0
-622 13 0
-622 -21 0
-621 1 0
-621 14 0
-621 5 0
-621 16 0
-621 -21 0
-620 18 0
-620 4 0
-620 2 0
-620 24 0
-620 -21 0
-619 6 0
-619 17 0
-619 22 0
-619 3 0
-619 -21 0
-618 19 0
-618 1 0
-618 4 0
-618 22 0
-618 -21 0
-617 11 0
-617 3 0
-617 18 0
-617 7 0
-617 -21 0
-616 1 0
-616 24 0
-616 13 0
-616 -21 0
-615 5 0
-615 14 0
-615 1 0
-615 3 0
-615 -21 0
-614 7 0
-614 1 0
-614 16 0
-614 9 0
-614 -21 0
-613 22 0
-613 6 0
-613 1 0
-613 -14 0
-612 8 0
-612 25 0
-612 12 0
-612 7 0
-612 -14 0
-611 24 0
-611 8 0
-611 25 0
-611 7 0
-611 -14 0
-610 5 0
-610 20 0
-610 1 0
-610 24 0
-610 -14 0
-609 16 0
-609 19 0
-609 4 0
-609 24 0
-609 -14 0
-608 21 0
-608 5 0
-608 8 0
-608 19 0
-608 -14 0
-607 6 0
-607 12 0
-607 25 0
-607 5 0
-607 -14 0
-606 11 0
-606 22 0
-606 1 0
-606 17 0
-606 -14 0
-605 16 0
-605 5 0
-605 25 0
-605 2 0
-605 -14 0
-604 3 0
-604 9 0
-604 25 0
-604 1 0
-604 -14 0
-603 20 0
-603 18 0
-603 1 0
-603 17 0
-603 -22 0
-602 9 0
-602 4 0
-602 17 0
-602 12 0
-602 -22 0
-601 11 0
-601 8 0
-601 2 0
-601 4 0
-601 -22 0
-600 23 0
-600 25 0
-600 21 0
-600 2 0
-600 -22 0
-599 17 0
-599 19 0
-599 8 0
-599 23 0
-599 -22 0
-598 1 0
-598 8 0
-598 21 0
-598 13 0
-598 -22 0
-597 3 0
-597 6 0
-597 5 0
-597 1 0
-597 -22 0
-596 4 0
-596 13 0
-596 9 0
-596 6 0
-596 -22 0
-595 19 0
-595 4 0
-595 6 0
-595 -22 0
-594 21 0
-594 15 0
-594 5 0
-594 -22 0
-593 2 0
-593 7 0
-593 21 0
-593 18 0
-593 -1 0
-592 9 0
-592 6 0
-592 13 0
-592 11 0
-592 -1 0
-591 2 0
-591 23 0
-591 19 0
-591 25 0
-591 -1 0
-590 8 0
-590 24 0
-590 23 0
-590 12 0
-590 -1 0
-589 11 0
-589 23 0
-589 24 0
-589 21 0
-589 -1 0
-588 12 0
-588 2 0
-588 15 0
-588 -1 0
-587 14 0
-587 8 0
-587 9 0
-587 10 0
-587 -1 0
-586 8 0
-586 6 0
-586 10 0
-586 20 0
-586 -1 0
-585 24 0
-585 7 0
-585 5 0
-585 2 0
-585 -1 0
-584 24 0
-584 15 0
-584 20 0
-584 2 0
-584 -1 0
-583 2 0
-583 10 0
-583 20 0
-583 -9 0
-582 7 0
-582 4 0
-582 2 0
-582 10 0
-582 -9 0
-581 6 0
-581 24 0
-581 18 0
-581 3 0
-581 -9 0
-580 19 0
-580 22 0
-580 12 0
-580 -9 0
-579 2 0
-579 13 0
-579 19 0
-579 18 0
-579 -9 0
-578 25 0
-578 21 0
-578 12 0
-578 17 0
-578 -9 0
-577 24 0
-577 15 0
-577 17 0
-577 4 0
-577 -9 0
-576 20 0
-576 16 0
-576 21 0
-576 8 0
-576 -9 0
-575 15 0
-575 11 0
-575 25 0
-575 16 0
-575 -9 0
-574 6 0
-574 23 0
-574 20 0
-574 12 0
-574 -9 0
-573 16 0
-573 13 0
-573 10 0
-573 19 0
-573 -6 0
-572 14 0
-572 13 0
-572 20 0
-572 19 0
-572 -6 0
-571 20 0
-571 10 0
-571 24 0
-571 5 0
-571 -6 0
-570 13 0
-570 9 0
-570 19 0
-570 25 0
-570 -6 0
-569 23 0
-569 17 0
-569 19 0
-569 -6 0
-568 12 0
-568 14 0
-568 2 0
-568 -6 0
-567 23 0
-567 7 0
-567 -6 0
-566 4 0
-566 16 0
-566 11 0
-566 3 0
-566 -6 0
-565 16 0
-565 4 0
-565 11 0
-565 20 0
-565 -6 0
-564 10 0
-564 5 0
-564 17 0
-564 15 0
-564 -6 0
-563 16 0
-563 1 0
-563 20 0
-563 23 0
-563 -3 0
-562 23 0
-562 8 0
-562 24 0
-562 5 0
-562 -3 0
-561 15 0
-561 12 0
-561 2 0
-561 11 0
-561 -3 0
-560 23 0
-560 10 0
-560 1 0
-560 8 0
-560 -3 0
-559 21 0
-559 24 0
-559 19 0
-559 2 0
-559 -3 0
-558 19 0
-558 17 0
-558 1 0
-558 9 0
-558 -3 0
-557 9 0
-557 12 0
-557 21 0
-557 22 0
-557 -3 0
-556 11 0
-556 17 0
-556 21 0
-556 24 0
-556 -3 0
-555 7 0
-555 15 0
-555 23 0
-555 19 0
-555 -3 0
-554 5 0
-554 21 0
-554 15 0
-554 11 0
-554 -3 0
-553 24 0
-553 11 0
-553 5 0
-553 12 0
-553 -8 0
-552 15 0
-552 21 0
-552 25 0
-552 5 0
-552 -8 0
-551 16 0
-551 21 0
-551 10 0
-551 6 0
-551 -8 0
-550 5 0
-550 2 0
-550 16 0
-550 -8 0
-549 6 0
-549 1 0
-549 14 0
-549 15 0
-549 -8 0
-548 12 0
-548 13 0
-548 3 0
-548 14 0
-548 -8 0
-547 20 0
-547 13 0
-547 21 0
-547 7 0
-547 -8 0
-546 24 0
-546 12 0
-546 17 0
-546 3 0
-546 -8 0
-545 3 0
-545 11 0
-545 19 0
-545 -8 0
-544 24 0
-544 14 0
-544 11 0
-544 19 0
-544 -8 0
-543 21 0
-543 13 0
-543 23 0
-543 15 0
-543 -24 0
-542 1 0
-542 17 0
-542 13 0
-542 8 0
-542 -24 0
-541 14 0
-541 20 0
-541 12 0
-541 10 0
-541 -24 0
-540 19 0
-540 7 0
-540 13 0
-540 -24 0
-539 10 0
-539 17 0
-539 12 0
-539 6 0
-539 -24 0
-538 22 0
-538 25 0
-538 2 0
-538 19 0
-538 -24 0
-537 1 0
-537 13 0
-537 21 0
-537 20 0
-537 -24 0
-536 7 0
-536 18 0
-536 6 0
-536 3 0
-536 -24 0
-535 15 0
-535 25 0
-535 9 0
-535 1 0
-535 -24 0
-534 3 0
-534 1 0
-534 12 0
-534 15 0
-534 -24 0
-533 23 0
-533 22 0
-533 17 0
-533 4 0
-533 -19 0
-532 3 0
-532 13 0
-532 18 0
-532 14 0
-532 -19 0
-531 17 0
-531 2 0
-531 13 0
-531 12 0
-531 -19 0
-530 18 0
-530 12 0
-530 20 0
-530 3 0
-530 -19 0
-529 4 0
-529 2 0
-529 22 0
-529 23 0
-529 -19 0
-528 11 0
-528 15 0
-528 -19 0
-527 17 0
-527 1 0
-527 10 0
-527 22 0
-527 -19 0
-526 13 0
-526 1 0
-526 23 0
-526 -19 0
-525 23 0
-525 2 0
-525 14 0
-525 15 0
-525 -19 0
-524 12 0
-524 22 0
-524 21 0
-524 15 0
-524 -19 0
-523 24 0
-523 23 0
-523 2 0
-523 17 0
-523 -10 0
-522 9 0
-522 18 0
-522 21 0
-522 24 0
-522 -10 0
-521 21 0
-521 17 0
-521 16 0
-521 24 0
-521 -10 0
-520 17 0
-520 5 0
-520 15 0
-520 8 0
-520 -10 0
-519 22 0
-519 18 0
-519 14 0
-519 19 0
-519 -10 0
-518 9 0
-518 24 0
-518 5 0
-518 17 0
-518 -10 0
-517 4 0
-517 16 0
-517 15 0
-517 6 0
-517 -10 0
-516 21 0
-516 5 0
-516 11 0
-516 19 0
-516 -10 0
-515 12 0
-515 16 0
-515 11 0
-515 23 0
-515 -10 0
-514 22 0
-514 13 0
-514 11 0
-514 15 0
-514 -10 0
-513 14 0
-513 7 0
-513 13 0
-513 -17 0
-512 10 0
-512 14 0
-512 4 0
-512 25 0
-512 -17 0
-511 21 0
-511 3 0
-511 20 0
-511 4 0
-511 -17 0
-510 24 0
-510 15 0
-510 18 0
-510 12 0
-510 -17 0
-509 21 0
-509 4 0
-509 22 0
-509 16 0
-509 -17 0
-508 21 0
-508 9 0
-508 14 0
-508 19 0
-508 -17 0
-507 16 0
-507 11 0
-507 22 0
-507 -17 0
-506 11 0
-506 25 0
-506 14 0
-506 2 0
-506 -17 0
-505 12 0
-505 2 0
-505 24 0
-505 14 0
-505 -17 0
-504 5 0
-504 9 0
-504 2 0
-504 21 0
-504 -17 0
-503 18 0
-503 9 0
-503 17 0
-503 -25 0
-502 5 0
-502 6 0
-502 23 0
-502 -25 0
-501 19 0
-501 1 0
-501 22 0
-501 16 0
-501 -25 0
-500 5 0
-500 17 0
-500 4 0
-500 -25 0
-499 2 0
-499 23 0
-499 1 0
-499 4 0
-499 -25 0
-498 17 0
-498 24 0
-498 14 0
-498 5 0
-498 -25 0
-497 22 0
-497 10 0
-497 16 0
-497 5 0
-497 -25 0
-496 15 0
-496 21 0
-496 4 0
-496 -25 0
-495 15 0
-495 20 0
-495 7 0
-495 6 0
-495 -25 0
-494 1 0
-494 11 0
-494 23 0
-494 20 0
-494 -25 0
-493 21 0
-493 19 0
-493 7 0
-493 -20 0
-492 23 0
-492 17 0
-492 1 0
-492 24 0
-492 -20 0
-491 2 0
-491 6 0
-491 22 0
-491 5 0
-491 -20 0
-490 5 0
-490 14 0
-490 19 0
-490 -20 0
-489 22 0
-489 10 0
-489 25 0
-489 -20 0
-488 9 0
-488 25 0
-488 10 0
-488 21 0
-488 -20 0
-487 16 0
-487 23 0
-487 11 0
-487 1 0
-487 -20 0
-486 8 0
-486 14 0
-486 15 0
-486 -20 0
-485 15 0
-485 7 0
-485 12 0
-485 23 0
-485 -20 0
-484 15 0
-484 8 0
-484 2 0
-484 -20 0
-483 2 0
-483 14 0
-483 12 0
-483 -13 0
-482 25 0
-482 8 0
-482 5 0
-482 2 0
-482 -13 0
-481 16 0
-481 17 0
-481 18 0
-481 9 0
-481 -13 0
-480 24 0
-480 20 0
-480 15 0
-480 19 0
-480 -13 0
-479 2 0
-479 12 0
-479 7 0
-479 25 0
-479 -13 0
-478 20 0
-478 8 0
-478 17 0
-478 -13 0
-477 10 0
-477 16 0
-477 18 0
-477 -13 0
-476 8 0
-476 18 0
-476 5 0
-476 22 0
-476 -13 0
-475 2 0
-475 4 0
-475 11 0
-475 20 0
-475 -13 0
-474 12 0
-474 6 0
-474 15 0
-474 -13 0
-473 24 0
-473 1 0
-473 8 0
-473 6 0
-473 -15 0
-472 1 0
-472 14 0
-472 25 0
-472 19 0
-472 -15 0
-471 3 0
-471 24 0
-471 6 0
-471 12 0
-471 -15 0
-470 22 0
-470 23 0
-470 16 0
-470 -15 0
-469 22 0
-469 10 0
-469 4 0
-469 1 0
-469 -15 0
-468 17 0
-468 5 0
-468 16 0
-468 -15 0
-467 12 0
-467 23 0
-467 22 0
-467 13 0
-467 -15 0
-466 20 0
-466 21 0
-466 3 0
-466 14 0
-466 -15 0
-465 16 0
-465 12 0
-465 25 0
-465 14 0
-465 -15 0
-464 5 0
-464 9 0
-464 8 0
-464 -15 0
-463 16 0
-463 2 0
-463 4 0
-463 14 0
-463 -5 0
-462 23 0
-462 3 0
-462 17 0
-462 18 0
-462 -5 0
-461 10 0
-461 21 0
-461 13 0
-461 25 0
-461 -5 0
-460 14 0
-460 13 0
-460 10 0
-460 25 0
-460 -5 0
-459 1 0
-459 8 0
-459 17 0
-459 20 0
-459 -5 0
-458 11 0
-458 7 0
-458 13 0
-458 9 0
-458 -5 0
-457 18 0
-457 21 0
-457 9 0
-457 8 0
-457 -5 0
-456 14 0
-456 12 0
-456 24 0
-456 19 0
-456 -5 0
-455 14 0
-455 4 0
-455 16 0
-455 -5 0
-454 17 0
-454 14 0
-454 16 0
-454 24 0
-454 -5 0
-453 -10 0
-453 -5 0
-453 -19 0
-453 -6 0
-452 -13 0
-452 -7 0
-452 -2 0
-452 -24 0
-451 -5 0
-451 -9 0
-451 -17 0
-451 -15 0
-450 -5 0
-450 -13 0
-450 -23 0
-450 -6 0
-449 -6 0
-449 -10 0
-449 -25 0
-449 -11 0
-448 -22 0
-448 -11 0
-448 -21 0
-448 -9 0
-447 -11 0
-447 -14 0
-447 -24 0
-447 -4 0
-446 -10 0
-446 -24 0
-446 -6 0
-445 -10 0
-445 -22 0
-445 -18 0
-445 -8 0
-444 -8 0
-444 -14 0
-444 -11 0
-443 -20 0
-443 -4 0
-443 -6 0
-443 -13 0
-442 -16 0
-442 -13 0
-442 -6 0
-442 -8 0
-441 -24 0
-441 -22 0
-441 -20 0
-441 -7 0
-440 -24 0
-440 -11 0
-440 -19 0
-440 -13 0
-439 -24 0
-439 -14 0
-439 -4 0
-438 -4 0
-438 -25 0
-438 -16 0
-437 -21 0
-437 -18 0
-437 -22 0
-437 -16 0
-436 -9 0
-436 -24 0
-436 -8 0
-436 -22 0
-435 -20 0
-435 -11 0
-435 -22 0
-434 -7 0
-434 -15 0
-434 -1 0
-434 -20 0
-433 -21 0
-433 -14 0
-433 -4 0
-433 -5 0
-432 -8 0
-432 -17 0
-432 -15 0
-432 -21 0
-431 -2 0
-431 -16 0
-431 -25 0
-431 -21 0
-430 -15 0
-430 -25 0
-430 -7 0
-430 -21 0
-429 -15 0
-429 -3 0
-429 -21 0
-429 -1 0
-428 -23 0
-428 -18 0
-428 -20 0
-428 -7 0
-427 -23 0
-427 -11 0
-427 -18 0
-427 -9 0
-426 -11 0
-426 -3 0
-426 -14 0
-426 -24 0
-425 -15 0
-425 -1 0
-425 -8 0
-425 -24 0
-424 -23 0
-424 -24 0
-424 -18 0
-424 -8 0
-423 -10 0
-423 -20 0
-423 -15 0
-422 -24 0
-422 -7 0
-422 -18 0
-422 -19 0
-421 -17 0
-421 -9 0
-421 -7 0
-421 -4 0
-420 -6 0
-420 -18 0
-420 -23 0
-420 -25 0
-419 -22 0
-419 -14 0
-419 -24 0
-418 -15 0
-418 -10 0
-418 -21 0
-418 -5 0
-417 -11 0
-417 -16 0
-417 -19 0
-417 -24 0
-416 -10 0
-416 -11 0
-416 -9 0
-415 -8 0
-415 -11 0
-415 -2 0
-415 -21 0
-414 -14 0
-414 -23 0
-414 -4 0
-414 -12 0
-413 -20 0
-413 -23 0
-413 -21 0
-413 -14 0
-412 -14 0
-412 -8 0
-412 -11 0
-412 -17 0
-411 -18 0
-411 -8 0
-411 -9 0
-411 -16 0
-410 -1 0
-410 -13 0
-410 -18 0
-410 -19 0
-409 -15 0
-409 -10 0
-409 -22 0
-409 -24 0
-408 -6 0
-408 -24 0
-408 -2 0
-407 -13 0
-407 -1 0
-407 -24 0
-407 -14 0
-406 -25 0
-406 -10 0
-406 -6 0
-406 -24 0
-405 -18 0
-405 -20 0
-405 -4 0
-405 -9 0
-404 -6 0
-404 -21 0
-404 -11 0
-404 -8 0
-403 -16 0
-403 -25 0
-403 -19 0
-403 -1 0
-402 -10 0
-402 -11 0
-401 -6 0
-401 -10 0
-401 -1 0
-401 -7 0
-400 -22 0
-400 -19 0
-400 -14 0
-399 -7 0
-399 -16 0
-399 -10 0
-398 -25 0
-398 -21 0
-398 -24 0
-398 -20 0
-397 -11 0
-397 -10 0
-397 -21 0
-397 -25 0
-396 -7 0
-396 -24 0
-396 -22 0
-396 -2 0
-395 -3 0
-395 -12 0
-395 -17 0
-395 -14 0
-394 -13 0
-394 -16 0
-394 -4 0
-394 -9 0
-393 -25 0
-393 -6 0
-393 -8 0
-393 -2 0
-392 -23 0
-392 -18 0
-392 -19 0
-392 -9 0
-391 -7 0
-391 -9 0
-391 -5 0
-390 -20 0
-390 -7 0
-390 -13 0
-390 -12 0
-389 -15 0
-389 -21 0
-389 -5 0
-389 -7 0
-388 -18 0
-388 -1 0
-388 -14 0
-388 -19 0
-387 -8 0
-387 -7 0
-387 -18 0
-387 -3 0
-386 -2 0
-386 -7 0
-386 -18 0
-386 -16 0
-385 -17 0
-385 -21 0
-385 -7 0
-384 -13 0
-384 -4 0
-384 -24 0
-384 -18 0
-383 -3 0
-383 -7 0
-383 -4 0
-383 -9 0
-382 -14 0
-382 -5 0
-382 -19 0
-382 -23 0
-381 -14 0
-381 -24 0
-381 -6 0
-381 -1 0
-380 -2 0
-380 -13 0
-380 -7 0
-380 -25 0
-379 -4 0
-379 -23 0
-379 -22 0
-378 -30 -27 -50 -40 41 0
-377 -40 -35 -32 41 0
-376 -35 -50 -33 -32 41 0
-375 -35 -38 -36 -44 41 0
-374 -47 -46 -26 -39 41 0
-373 -26 -47 -34 -48 41 0
-372 -34 -46 -44 41 0
-371 -29 -32 -26 -37 41 0
-370 -47 -48 -29 41 0
-369 -29 -40 -28 -50 41 0
-368 -35 -36 -40 -31 43 0
-367 -37 -27 -46 -49 43 0
-366 -33 -45 -41 -36 43 0
-365 -28 -47 -50 -30 43 0
-364 -32 -48 -46 43 0
-363 -45 -46 -50 -27 43 0
-362 -47 -36 -48 43 0
-361 -38 -32 -36 43 0
-360 -32 -45 -39 -47 43 0
-359 -37 -41 -32 43 0
-358 -32 -37 -48 -42 29 0
-357 -44 -37 -42 -38 29 0
-356 -28 -38 -27 -47 29 0
-355 -27 -44 -35 -46 29 0
-354 -30 -27 -37 29 0
-353 -26 -47 -46 29 0
-352 -50 -28 -40 29 0
-351 -40 -33 -32 -27 29 0
-350 -30 -38 -32 29 0
-349 -35 -45 -42 29 0
-348 -36 -40 -27 32 0
-347 -35 -49 -41 -30 32 0
-346 -45 -36 -34 -39 32 0
-345 -49 -38 -48 -28 32 0
-344 -34 -48 -28 -37 32 0
-343 -47 -45 -27 -39 32 0
-342 -50 -47 -27 -35 32 0
-341 -27 -40 -45 -26 32 0
-340 -45 -29 -34 -44 32 0
-339 -35 -28 -49 32 0
-338 -50 -48 -32 -28 37 0
-337 -27 -47 -42 37 0
-336 -44 -42 -41 -35 37 0
-335 -27 -33 -31 37 0
-334 -50 -48 -38 -35 37 0
-333 -32 -26 -44 -48 37 0
-332 -40 -39 -29 -34 37 0
-331 -29 -42 -39 -26 37 0
-330 -38 -41 -49 -39 37 0
-329 -27 -34 -43 -41 37 0
-328 -34 -48 -35 -42 27 0
-327 -38 -46 -47 -35 27 0
-326 -44 -48 -26 -40 27 0
-325 -50 -32 -35 -28 27 0
-324 -46 -48 -35 -37 27 0
-323 -42 -32 -40 27 0
-322 -34 -41 -26 -33 27 0
-321 -29 -41 -38 27 0
-320 -50 -45 -48 27 0
-319 -28 -41 -49 -32 27 0
-318 -40 -34 -27 36 0
-317 -40 -33 -49 36 0
-316 -42 -26 -40 -38 36 0
-315 -27 -38 -26 -48 36 0
-314 -46 -43 -26 -47 36 0
-313 -40 -46 -27 -50 36 0
-312 -49 -34 -26 -35 36 0
-311 -37 -28 -49 36 0
-310 -40 -45 36 0
-309 -28 -33 -46 36 0
-308 -43 -33 -46 -34 48 0
-307 -42 -49 -38 -45 48 0
-306 -32 -45 -31 -33 48 0
-305 -35 -36 -29 -27 48 0
-304 -30 -46 -45 -33 48 0
-303 -30 -45 -28 -41 48 0
-302 -42 -32 -33 -39 48 0
-301 -31 -44 -30 -45 48 0
-300 -43 -31 -35 -44 48 0
-299 -47 -28 -38 -42 48 0
-298 -34 -26 -39 -44 46 0
-297 -28 -33 -44 -38 46 0
-296 -26 -39 -30 -41 46 0
-295 -43 -29 -27 -49 46 0
-294 -31 -42 -47 -28 46 0
-293 -44 -26 -29 -47 46 0
-292 -36 -28 -43 -32 46 0
-291 -26 -49 -38 46 0
-290 -30 -39 -26 -28 46 0
-289 -32 -26 -41 -34 46 0
-288 -47 -31 -26 39 0
-287 -33 -50 -37 -32 39 0
-286 -49 -33 -50 -32 39 0
-285 -30 -45 -26 -49 39 0
-284 -41 -44 -29 -49 39 0
-283 -46 -30 -33 -44 39 0
-282 -31 -37 -50 -30 39 0
-281 -36 -47 -26 -42 39 0
-280 -41 -30 -50 -27 39 0
-279 -28 -34 -50 -26 39 0
-278 -45 -43 -26 -42 47 0
-277 -34 -29 -42 -37 47 0
-276 -36 -33 -27 -29 47 0
-275 -48 -50 -46 -27 47 0
-274 -42 -44 -33 -48 47 0
-273 -26 -33 -46 -38 47 0
-272 -28 -31 -30 -26 47 0
-271 -29 -38 -34 -31 47 0
-270 -44 -29 -31 47 0
-269 -46 -40 -30 47 0
-268 -27 -32 -46 -43 26 0
-267 -34 -31 -38 -36 26 0
-266 -27 -48 -44 -50 26 0
-265 -33 -49 -48 -37 26 0
-264 -36 -48 -49 -46 26 0
-263 -37 -27 -40 26 0
-262 -39 -33 -34 -35 26 0
-261 -33 -31 -35 -45 26 0
-260 -49 -32 -30 -27 26 0
-259 -49 -40 -45 -27 26 0
-258 -27 -35 -45 34 0
-257 -32 -29 -27 -35 34 0
-256 -31 -49 -43 -28 34 0
-255 -44 -47 -37 34 0
-254 -27 -38 -44 -43 34 0
-253 -50 -46 -37 -42 34 0
-252 -49 -40 -42 -29 34 0
-251 -45 -41 -46 -33 34 0
-250 -40 -36 -50 -41 34 0
-249 -31 -48 -45 -37 34 0
-248 -41 -38 -35 -44 31 0
-247 -39 -38 -45 -44 31 0
-246 -45 -35 -49 -30 31 0
-245 -38 -34 -44 -50 31 0
-244 -48 -42 -44 31 0
-243 -37 -39 -27 31 0
-242 -48 -32 31 0
-241 -29 -41 -36 -28 31 0
-240 -41 -29 -36 -45 31 0
-239 -35 -30 -42 -40 31 0
-238 -41 -26 -45 -48 28 0
-237 -48 -33 -49 -30 28 0
-236 -40 -37 -27 -36 28 0
-235 -48 -35 -26 -33 28 0
-234 -46 -49 -44 -27 28 0
-233 -44 -42 -26 -34 28 0
-232 -34 -37 -46 -47 28 0
-231 -36 -42 -46 -49 28 0
-230 -32 -40 -48 -44 28 0
-229 -30 -46 -40 -36 28 0
-228 -49 -36 -30 -37 33 0
-227 -40 -46 -50 -30 33 0
-226 -41 -46 -35 -31 33 0
-225 -30 -27 -41 33 0
-224 -31 -26 -39 -40 33 0
-223 -37 -38 -28 -39 33 0
-222 -45 -38 -46 -32 33 0
-221 -49 -37 -42 -28 33 0
-220 -28 -36 -44 33 0
-219 -49 -39 -36 -44 33 0
-218 -46 -38 -48 -40 49 0
-217 -26 -42 -38 -33 49 0
-216 -39 -45 -37 -35 49 0
-215 -44 -32 -38 49 0
-214 -35 -42 -37 -31 49 0
-213 -47 -50 -27 -44 49 0
-212 -26 -38 -46 -45 49 0
-211 -32 -43 -31 -28 49 0
-210 -40 -50 -34 -26 49 0
-209 -28 -26 -37 -40 49 0
-208 -48 -47 -42 -29 44 0
-207 -28 -38 -43 -39 44 0
-206 -42 -27 -38 -37 44 0
-205 -43 -37 -45 -28 44 0
-204 -29 -27 -47 -48 44 0
-203 -36 -40 44 0
-202 -42 -26 -35 -47 44 0
-201 -38 -26 -48 44 0
-200 -48 -27 -39 -40 44 0
-199 -37 -47 -46 -40 44 0
-198 -49 -48 -27 -42 35 0
-197 -34 -43 -46 -49 35 0
-196 -46 -42 -41 -49 35 0
-195 -42 -30 -40 -33 35 0
-194 -47 -43 -39 -44 35 0
-193 -34 -49 -30 -42 35 0
-192 -29 -41 -40 -31 35 0
-191 -46 -30 -36 -44 35 0
-190 -37 -41 -36 -48 35 0
-189 -47 -38 -36 -40 35 0
-188 -39 -32 -38 42 0
-187 -35 -39 -29 -50 42 0
-186 -46 -28 -45 -29 42 0
-185 -49 -40 -43 -37 42 0
-184 -46 -29 -47 -41 42 0
-183 -46 -34 -39 -44 42 0
-182 -41 -36 -47 42 0
-181 -36 -50 -39 -27 42 0
-180 -37 -27 -49 -39 42 0
-179 -30 -34 -27 -46 42 0
-178 -43 -34 -42 50 0
-177 -30 -31 -48 50 0
-176 -44 -26 -47 -41 50 0
-175 -30 -42 -29 50 0
-174 -27 -48 -26 -29 50 0
-173 -42 -49 -39 -30 50 0
-172 -47 -35 -41 -30 50 0
-171 -40 -46 -29 50 0
-170 -40 -45 -32 -31 50 0
-169 -26 -36 -48 -45 50 0
-168 -46 -44 -32 45 0
-167 -48 -42 -26 -49 45 0
-166 -27 -31 -47 -30 45 0
-165 -30 -39 -44 45 0
-164 -47 -35 -50 45 0
-163 -34 -50 -35 -46 45 0
-162 -41 -48 -36 -26 45 0
-161 -33 -39 -40 45 0
-160 -40 -32 -37 -48 45 0
-159 -40 -33 -27 45 0
-158 -27 -39 -37 38 0
-157 -50 -33 -30 -27 38 0
-156 -41 -42 -43 -34 38 0
-155 -49 -45 -40 -44 38 0
-154 -27 -37 -32 -50 38 0
-153 -45 -33 -42 38 0
-152 -35 -41 -43 38 0
-151 -33 -43 -30 -47 38 0
-150 -27 -29 -36 -45 38 0
-149 -37 -31 -40 38 0
-148 -49 -26 -33 -31 40 0
-147 -26 -39 -50 -44 40 0
-146 -28 -49 -31 -37 40 0
-145 -47 -48 -41 40 0
-144 -47 -35 -29 -26 40 0
-143 -42 -30 -41 40 0
-142 -37 -48 -47 -38 40 0
-141 -45 -46 -28 -39 40 0
-140 -41 -37 -50 -39 40 0
-139 -30 -34 -33 40 0
-138 -41 -27 -29 -39 30 0
-137 -48 -28 -42 -43 30 0
-136 -35 -46 -38 -50 30 0
-135 -39 -38 -35 -50 30 0
-134 -26 -33 -42 -45 30 0
-133 -36 -32 -38 -34 30 0
-132 -43 -46 -34 -33 30 0
-131 -39 -37 -49 -44 30 0
-130 -39 -29 -41 30 0
-129 -42 -39 -41 -49 30 0
-128 35 30 44 31 0
-127 38 32 27 49 0
-126 30 34 42 40 0
-125 30 38 48 31 0
-124 31 35 50 36 0
-123 47 36 46 34 0
-122 36 39 49 29 0
-121 35 49 31 0
-120 35 47 43 33 0
-119 33 39 36 0
-118 45 29 31 38 0
-117 41 38 31 33 0
-116 49 47 45 32 0
-115 49 36 44 38 0
-114 49 39 29 0
-113 29 50 41 0
-112 46 43 47 41 0
-111 34 49 33 47 0
-110 45 36 47 0
-109 32 40 26 45 0
-108 46 39 29 30 0
-107 33 42 40 46 0
-106 27 41 50 46 0
-105 40 50 32 46 0
-104 40 28 46 26 0
-103 48 43 45 32 0
-102 48 36 43 34 0
-101 36 28 39 49 0
-100 40 26 33 49 0
-99 48 49 43 33 0
-98 35 45 40 0
-97 49 32 43 44 0
-96 42 34 32 29 0
-95 31 43 48 50 0
-94 47 39 49 0
-93 40 35 46 30 0
-92 36 41 44 49 0
-91 35 36 34 0
-90 33 36 27 46 0
-89 39 48 29 37 0
-88 45 48 46 39 0
-87 39 33 36 42 0
-86 43 33 34 41 0
-85 26 38 43 44 0
-84 40 35 47 49 0
-83 31 49 27 0
-82 38 26 49 39 0
-81 50 35 31 49 0
-80 43 45 29 34 0
-79 31 46 36 33 0
-78 41 50 44 26 0
-77 35 36 0
-76 31 35 26 32 0
-75 47 44 39 0
-74 32 41 35 0
-73 50 46 49 45 0
-72 36 35 46 50 0
-71 32 49 47 27 0
-70 28 37 42 39 0
-69 38 41 29 34 0
-68 50 31 33 27 0
-67 48 43 44 34 0
-66 32 34 30 0
-65 45 32 38 37 0
-64 40 46 30 32 0
-63 43 26 39 44 0
-62 33 32 43 28 0
-61 27 32 43 41 0
-60 42 46 32 0
-59 38 29 49 43 0
-58 28 32 29 34 0
-57 39 30 44 48 0
-56 39 49 31 26 0
-55 27 38 32 50 0
-54 29 48 47 0
-53 378 0
-53 377 0
-53 376 0
-53 375 0
-53 374 0
-53 373 0
-53 372 0
-53 371 0
-53 370 0
-53 369 0
-53 368 0
-53 367 0
-53 366 0
-53 365 0
-53 364 0
-53 363 0
-53 362 0
-53 361 0
-53 360 0
-53 359 0
-53 358 0
-53 357 0
-53 356 0
-53 355 0
-53 354 0
-53 353 0
-53 352 0
-53 351 0
-53 350 0
-53 349 0
-53 348 0
-53 347 0
-53 346 0
-53 345 0
-53 344 0
-53 343 0
-53 342 0
-53 341 0
-53 340 0
-53 339 0
-53 338 0
-53 337 0
-53 336 0
-53 335 0
-53 334 0
-53 333 0
-53 332 0
-53 331 0
-53 330 0
-53 329 0
-53 328 0
-53 327 0
-53 326 0
-53 325 0
-53 324 0
-53 323 0
-53 322 0
-53 321 0
-53 320 0
-53 319 0
-53 318 0
-53 317 0
-53 316 0
-53 315 0
-53 314 0
-53 313 0
-53 312 0
-53 311 0
-53 310 0
-53 309 0
-53 308 0
-53 307 0
-53 306 0
-53 305 0
-53 304 0
-53 303 0
-53 302 0
-53 301 0
-53 300 0
-53 299 0
-53 298 0
-53 297 0
-53 296 0
-53 295 0
-53 294 0
-53 293 0
-53 292 0
-53 291 0
-53 290 0
-53 289 0
-53 288 0
-53 287 0
-53 286 0
-53 285 0
-53 284 0
-53 283 0
-53 282 0
-53 281 0
-53 280 0
-53 279 0
-53 278 0
-53 277 0
-53 276 0
-53 275 0
-53 274 0
-53 273 0
-53 272 0
-53 271 0
-53 270 0
-53 269 0
-53 268 0
-53 267 0
-53 266 0
-53 265 0
-53 264 0
-53 263 0
-53 262 0
-53 261 0
-53 260 0
-53 259 0
-53 258 0
-53 257 0
-53 256 0
-53 255 0
-53 254 0
-53 253 0
-53 252 0
-53 251 0
-53 250 0
-53 249 0
-53 248 0
-53 247 0
-53 246 0
-53 245 0
-53 244 0
-53 243 0
-53 242 0
-53 241 0
-53 240 0
-53 239 0
-53 238 0
-53 237 0
-53 236 0
-53 235 0
-53 234 0
-53 233 0
-53 232 0
-53 231 0
-53 230 0
-53 229 0
-53 228 0
-53 227 0
-53 226 0
-53 225 0
-53 224 0
-53 223 0
-53 222 0
-53 221 0
-53 220 0
-53 219 0
-53 218 0
-53 217 0
-53 216 0
-53 215 0
-53 214 0
-53 213 0
-53 212 0
-53 211 0
-53 210 0
-53 209 0
-53 208 0
-53 207 0
-53 206 0
-53 205 0
-53 204 0
-53 203 0
-53 202 0
-53 201 0
-53 200 0
-53 199 0
-53 198 0
-53 197 0
-53 196 0
-53 195 0
-53 194 0
-53 193 0
-53 192 0
-53 191 0
-53 190 0
-53 189 0
-53 188 0
-53 187 0
-53 186 0
-53 185 0
-53 184 0
-53 183 0
-53 182 0
-53 181 0
-53 180 0
-53 179 0
-53 178 0
-53 177 0
-53 176 0
-53 175 0
-53 174 0
-53 173 0
-53 172 0
-53 171 0
-53 170 0
-53 169 0
-53 168 0
-53 167 0
-53 166 0
-53 165 0
-53 164 0
-53 163 0
-53 162 0
-53 161 0
-53 160 0
-53 159 0
-53 158 0
-53 157 0
-53 156 0
-53 155 0
-53 154 0
-53 153 0
-53 152 0
-53 151 0
-53 150 0
-53 149 0
-53 148 0
-53 147 0
-53 146 0
-53 145 0
-53 144 0
-53 143 0
-53 142 0
-53 141 0
-53 140 0
-53 139 0
-53 138 0
-53 137 0
-53 136 0
-53 135 0
-53 134 0
-53 133 0
-53 132 0
-53 131 0
-53 130 0
-53 129 0
-53 128 0
-53 127 0
-53 126 0
-53 125 0
-53 124 0
-53 123 0
-53 122 0
-53 121 0
-53 120 0
-53 119 0
-53 118 0
-53 117 0
-53 116 0
-53 115 0
-53 114 0
-53 113 0
-53 112 0
-53 111 0
-53 110 0
-53 109 0
-53 108 0
-53 107 0
-53 106 0
-53 105 0
-53 104 0
-53 103 0
-53 102 0
-53 101 0
-53 100 0
-53 99 0
-53 98 0
-53 97 0
-53 96 0
-53 95 0
-53 94 0
-53 93 0
-53 92 0
-53 91 0
-53 90 0
-53 89 0
-53 88 0
-53 87 0
-53 86 0
-53 85 0
-53 84 0
-53 83 0
-53 82 0
-53 81 0
-53 80 0
-53 79 0
-53 78 0
-53 77 0
-53 76 0
-53 75 0
-53 74 0
-53 73 0
-53 72 0
-53 71 0
-53 70 0
-53 69 0
-53 68 0
-53 67 0
-53 66 0
-53 65 0
-53 64 0
-53 63 0
-53 62 0
-53 61 0
-53 60 0
-53 59 0
-53 58 0
-53 57 0
-53 56 0
-53 55 0
-53 54 0
-52 703 702 701 700 699 698 697 696 695 694 693 692 691 690 689 688 687 686 685 684 683 682 681 680 679 678 677 676 675 674 673 672 671 670 669 668 667 666 665 664 663 662 661 660 659 658 657 656 655 654 653 652 651 650 649 648 647 646 645 644 643 642 641 640 639 638 637 636 635 634 633 632 631 630 629 628 627 626 625 624 623 622 621 620 619 618 617 616 615 614 613 612 611 610 609 608 607 606 605 604 603 602 601 600 599 598 597 596 595 594 593 592 591 590 589 588 587 586 585 584 583 582 581 580 579 578 577 576 575 574 573 572 571 570 569 568 567 566 565 564 563 562 561 560 559 558 557 556 555 554 553 552 551 550 549 548 547 546 545 544 543 542 541 540 539 538 537 536 535 534 533 532 531 530 529 528 527 526 525 524 523 522 521 520 519 518 517 516 515 514 513 512 511 510 509 508 507 506 505 504 503 502 501 500 499 498 497 496 495 494 493 492 491 490 489 488 487 486 485 484 483 482 481 480 479 478 477 476 475 474 473 472 471 470 469 468 467 466 465 464 463 462 461 460 459 458 457 456 455 454 453 452 451 450 449 448 447 446 445 444 443 442 441 440 439 438 437 436 435 434 433 432 431 430 429 428 427 426 425 424 423 422 421 420 419 418 417 416 415 414 413 412 411 410 409 408 407 406 405 404 403 402 401 400 399 398 397 396 395 394 393 392 391 390 389 388 387 386 385 384 383 382 381 380 379 53 0
-51 779 0
-51 778 0
-51 777 0
-51 776 0
-51 775 0
-51 774 0
-51 773 0
-51 772 0
-51 771 0
-51 770 0
-51 769 0
-51 768 0
-51 767 0
-51 766 0
-51 765 0
-51 764 0
-51 763 0
-51 762 0
-51 761 0
-51 760 0
-51 759 0
-51 758 0
-51 757 0
-51 756 0
-51 755 0
-51 704 0
-51 52 0
51 -16 -18 0

